NAME : rc_203.2.txt.8537075.tour
COMMENT : Length = 8537075
COMMENT : Found by LKH [Keld Helsgaun] Tue May  2 05:51:22 2017
TYPE : TOUR
DIMENSION : 33
TOUR_SECTION
1
18
26
27
12
11
14
13
29
6
5
9
7
15
4
32
28
22
30
8
31
17
16
20
23
21
3
2
19
24
10
25
33
-1
EOF
